c Created with the Wolfram Language : www.wolfram.com
c 
p edge 100 981
e 1 2
e 3 4
e 3 7
e 5 7
e 2 8
e 5 8
e 7 8
e 6 9
e 3 10
e 1 11
e 9 11
e 7 12
e 7 13
e 11 13
e 1 14
e 5 14
e 13 14
e 10 15
e 2 16
e 4 16
e 11 16
e 1 17
e 16 17
e 4 18
e 5 18
e 10 18
e 12 18
e 16 18
e 17 18
e 9 19
e 15 19
e 7 20
e 11 20
e 14 20
e 5 21
e 6 21
e 7 21
e 10 22
e 5 23
e 7 23
e 8 23
e 11 23
e 13 23
e 14 23
e 4 24
e 10 24
e 12 24
e 15 24
e 21 24
e 2 25
e 11 25
e 1 26
e 13 26
e 8 27
e 11 27
e 12 27
e 15 27
e 16 27
e 17 27
e 8 28
e 10 28
e 15 28
e 16 28
e 18 28
e 23 28
e 27 28
e 4 29
e 6 29
e 23 29
e 4 30
e 6 30
e 11 30
e 13 30
e 15 30
e 17 30
e 24 30
e 1 31
e 8 31
e 12 31
e 16 31
e 29 31
e 13 32
e 21 32
e 25 32
e 27 32
e 28 32
e 1 33
e 7 33
e 8 33
e 11 33
e 12 33
e 3 34
e 6 34
e 14 34
e 19 34
e 24 34
e 25 34
e 31 34
e 32 34
e 33 34
e 6 35
e 8 35
e 12 35
e 19 35
e 22 35
e 23 35
e 30 35
e 31 35
e 12 36
e 16 36
e 20 36
e 22 36
e 23 36
e 24 36
e 27 36
e 33 36
e 34 36
e 6 37
e 7 37
e 15 37
e 21 37
e 24 37
e 28 37
e 33 37
e 36 37
e 1 38
e 3 38
e 10 38
e 24 38
e 29 38
e 32 38
e 35 38
e 5 39
e 12 39
e 20 39
e 25 39
e 27 39
e 37 39
e 6 40
e 12 40
e 20 40
e 25 40
e 30 40
e 32 40
e 36 40
e 10 41
e 13 41
e 19 41
e 2 42
e 3 42
e 9 42
e 12 42
e 22 42
e 33 42
e 37 42
e 41 42
e 1 43
e 3 43
e 5 43
e 7 43
e 10 43
e 11 43
e 20 43
e 21 43
e 23 43
e 26 43
e 27 43
e 28 43
e 29 43
e 30 43
e 31 43
e 39 43
e 40 43
e 41 43
e 1 44
e 5 44
e 11 44
e 12 44
e 13 44
e 19 44
e 21 44
e 34 44
e 40 44
e 42 44
e 1 45
e 10 45
e 17 45
e 19 45
e 27 45
e 34 45
e 38 45
e 39 45
e 43 45
e 1 46
e 15 46
e 20 46
e 22 46
e 28 46
e 38 46
e 3 47
e 8 47
e 9 47
e 10 47
e 18 47
e 25 47
e 31 47
e 34 47
e 40 47
e 43 47
e 44 47
e 1 48
e 3 48
e 4 48
e 7 48
e 9 48
e 14 48
e 18 48
e 22 48
e 26 48
e 28 48
e 32 48
e 40 48
e 42 48
e 46 48
e 47 48
e 1 49
e 10 49
e 15 49
e 21 49
e 30 49
e 34 49
e 36 49
e 38 49
e 39 49
e 10 50
e 14 50
e 16 50
e 22 50
e 26 50
e 29 50
e 42 50
e 45 50
e 48 50
e 4 51
e 8 51
e 12 51
e 18 51
e 21 51
e 22 51
e 24 51
e 28 51
e 37 51
e 40 51
e 43 51
e 46 51
e 5 52
e 7 52
e 8 52
e 11 52
e 13 52
e 21 52
e 23 52
e 24 52
e 26 52
e 27 52
e 30 52
e 36 52
e 41 52
e 49 52
e 50 52
e 2 53
e 9 53
e 16 53
e 19 53
e 20 53
e 21 53
e 22 53
e 33 53
e 41 53
e 1 54
e 18 54
e 24 54
e 27 54
e 31 54
e 34 54
e 36 54
e 40 54
e 41 54
e 42 54
e 44 54
e 5 55
e 19 55
e 20 55
e 21 55
e 24 55
e 34 55
e 35 55
e 42 55
e 53 55
e 11 56
e 16 56
e 17 56
e 35 56
e 42 56
e 45 56
e 53 56
e 3 57
e 24 57
e 25 57
e 52 57
e 1 58
e 3 58
e 12 58
e 18 58
e 19 58
e 44 58
e 46 58
e 49 58
e 2 59
e 3 59
e 12 59
e 13 59
e 14 59
e 22 59
e 36 59
e 41 59
e 46 59
e 51 59
e 55 59
e 6 60
e 9 60
e 11 60
e 15 60
e 23 60
e 24 60
e 29 60
e 34 60
e 35 60
e 36 60
e 37 60
e 39 60
e 46 60
e 48 60
e 52 60
e 55 60
e 18 61
e 22 61
e 34 61
e 36 61
e 37 61
e 42 61
e 51 61
e 53 61
e 22 62
e 23 62
e 24 62
e 29 62
e 32 62
e 36 62
e 51 62
e 53 62
e 54 62
e 56 62
e 1 63
e 6 63
e 8 63
e 15 63
e 21 63
e 27 63
e 28 63
e 30 63
e 31 63
e 35 63
e 36 63
e 42 63
e 44 63
e 46 63
e 49 63
e 53 63
e 55 63
e 3 64
e 5 64
e 13 64
e 21 64
e 25 64
e 27 64
e 29 64
e 33 64
e 34 64
e 37 64
e 43 64
e 58 64
e 61 64
e 62 64
e 4 65
e 9 65
e 18 65
e 27 65
e 30 65
e 34 65
e 37 65
e 41 65
e 42 65
e 52 65
e 53 65
e 60 65
e 4 66
e 5 66
e 13 66
e 16 66
e 19 66
e 27 66
e 29 66
e 39 66
e 41 66
e 54 66
e 57 66
e 63 66
e 65 66
e 4 67
e 12 67
e 18 67
e 27 67
e 30 67
e 31 67
e 36 67
e 38 67
e 46 67
e 54 67
e 56 67
e 9 68
e 15 68
e 19 68
e 20 68
e 21 68
e 27 68
e 31 68
e 36 68
e 49 68
e 57 68
e 66 68
e 67 68
e 1 69
e 4 69
e 7 69
e 17 69
e 21 69
e 23 69
e 24 69
e 26 69
e 27 69
e 40 69
e 52 69
e 53 69
e 56 69
e 59 69
e 62 69
e 63 69
e 3 70
e 11 70
e 16 70
e 18 70
e 19 70
e 24 70
e 27 70
e 40 70
e 44 70
e 47 70
e 48 70
e 55 70
e 57 70
e 58 70
e 63 70
e 5 71
e 10 71
e 11 71
e 17 71
e 30 71
e 43 71
e 46 71
e 48 71
e 50 71
e 51 71
e 57 71
e 58 71
e 64 71
e 19 72
e 20 72
e 21 72
e 29 72
e 39 72
e 41 72
e 54 72
e 56 72
e 58 72
e 61 72
e 68 72
e 5 73
e 6 73
e 8 73
e 12 73
e 15 73
e 23 73
e 25 73
e 40 73
e 48 73
e 60 73
e 63 73
e 6 74
e 11 74
e 13 74
e 16 74
e 17 74
e 18 74
e 20 74
e 26 74
e 27 74
e 30 74
e 47 74
e 49 74
e 51 74
e 55 74
e 57 74
e 68 74
e 2 75
e 3 75
e 12 75
e 15 75
e 45 75
e 60 75
e 65 75
e 74 75
e 4 76
e 13 76
e 15 76
e 20 76
e 22 76
e 24 76
e 30 76
e 32 76
e 37 76
e 39 76
e 46 76
e 48 76
e 51 76
e 56 76
e 61 76
e 63 76
e 66 76
e 67 76
e 70 76
e 75 76
e 3 77
e 11 77
e 16 77
e 17 77
e 23 77
e 25 77
e 26 77
e 27 77
e 35 77
e 39 77
e 45 77
e 51 77
e 54 77
e 56 77
e 60 77
e 61 77
e 65 77
e 74 77
e 76 77
e 3 78
e 5 78
e 17 78
e 27 78
e 36 78
e 37 78
e 42 78
e 53 78
e 58 78
e 62 78
e 64 78
e 66 78
e 70 78
e 71 78
e 72 78
e 5 79
e 6 79
e 13 79
e 21 79
e 22 79
e 23 79
e 24 79
e 31 79
e 48 79
e 49 79
e 50 79
e 53 79
e 65 79
e 1 80
e 3 80
e 7 80
e 11 80
e 15 80
e 24 80
e 28 80
e 29 80
e 37 80
e 40 80
e 42 80
e 54 80
e 62 80
e 65 80
e 68 80
e 76 80
e 78 80
e 79 80
e 7 81
e 8 81
e 11 81
e 18 81
e 20 81
e 22 81
e 26 81
e 28 81
e 36 81
e 44 81
e 45 81
e 47 81
e 52 81
e 53 81
e 55 81
e 63 81
e 65 81
e 67 81
e 73 81
e 79 81
e 1 82
e 6 82
e 14 82
e 21 82
e 23 82
e 29 82
e 32 82
e 34 82
e 35 82
e 48 82
e 49 82
e 52 82
e 56 82
e 59 82
e 60 82
e 61 82
e 64 82
e 68 82
e 69 82
e 81 82
e 4 83
e 10 83
e 13 83
e 22 83
e 28 83
e 29 83
e 32 83
e 34 83
e 35 83
e 41 83
e 42 83
e 47 83
e 50 83
e 67 83
e 77 83
e 7 84
e 8 84
e 10 84
e 12 84
e 13 84
e 18 84
e 24 84
e 25 84
e 33 84
e 35 84
e 43 84
e 52 84
e 56 84
e 68 84
e 71 84
e 76 84
e 82 84
e 2 85
e 10 85
e 13 85
e 14 85
e 15 85
e 16 85
e 17 85
e 25 85
e 32 85
e 33 85
e 34 85
e 50 85
e 61 85
e 72 85
e 78 85
e 3 86
e 12 86
e 21 86
e 29 86
e 44 86
e 46 86
e 49 86
e 51 86
e 52 86
e 58 86
e 61 86
e 62 86
e 68 86
e 74 86
e 80 86
e 82 86
e 23 87
e 30 87
e 33 87
e 48 87
e 51 87
e 55 87
e 73 87
e 76 87
e 77 87
e 81 87
e 8 88
e 16 88
e 21 88
e 22 88
e 24 88
e 27 88
e 29 88
e 33 88
e 34 88
e 35 88
e 41 88
e 42 88
e 45 88
e 50 88
e 58 88
e 65 88
e 75 88
e 76 88
e 82 88
e 84 88
e 87 88
e 4 89
e 9 89
e 16 89
e 18 89
e 21 89
e 22 89
e 35 89
e 37 89
e 39 89
e 40 89
e 44 89
e 45 89
e 49 89
e 50 89
e 53 89
e 61 89
e 63 89
e 76 89
e 81 89
e 84 89
e 3 90
e 4 90
e 5 90
e 8 90
e 15 90
e 16 90
e 22 90
e 30 90
e 33 90
e 36 90
e 40 90
e 46 90
e 48 90
e 50 90
e 51 90
e 65 90
e 80 90
e 7 91
e 8 91
e 12 91
e 15 91
e 21 91
e 25 91
e 26 91
e 28 91
e 33 91
e 36 91
e 39 91
e 49 91
e 50 91
e 53 91
e 55 91
e 69 91
e 79 91
e 86 91
e 1 92
e 7 92
e 9 92
e 11 92
e 13 92
e 20 92
e 24 92
e 35 92
e 38 92
e 39 92
e 51 92
e 52 92
e 53 92
e 61 92
e 62 92
e 64 92
e 69 92
e 71 92
e 77 92
e 87 92
e 90 92
e 7 93
e 10 93
e 14 93
e 15 93
e 20 93
e 21 93
e 24 93
e 28 93
e 36 93
e 37 93
e 42 93
e 44 93
e 45 93
e 47 93
e 48 93
e 49 93
e 55 93
e 58 93
e 66 93
e 67 93
e 68 93
e 69 93
e 70 93
e 80 93
e 87 93
e 4 94
e 5 94
e 10 94
e 17 94
e 21 94
e 28 94
e 37 94
e 39 94
e 41 94
e 42 94
e 44 94
e 49 94
e 60 94
e 62 94
e 66 94
e 70 94
e 83 94
e 84 94
e 87 94
e 7 95
e 8 95
e 9 95
e 12 95
e 13 95
e 17 95
e 22 95
e 26 95
e 36 95
e 43 95
e 44 95
e 48 95
e 52 95
e 53 95
e 55 95
e 56 95
e 67 95
e 76 95
e 88 95
e 2 96
e 3 96
e 6 96
e 7 96
e 8 96
e 15 96
e 17 96
e 22 96
e 23 96
e 36 96
e 38 96
e 41 96
e 54 96
e 60 96
e 61 96
e 63 96
e 64 96
e 69 96
e 70 96
e 75 96
e 81 96
e 90 96
e 2 97
e 4 97
e 5 97
e 9 97
e 11 97
e 24 97
e 25 97
e 30 97
e 31 97
e 38 97
e 41 97
e 46 97
e 47 97
e 51 97
e 54 97
e 57 97
e 58 97
e 61 97
e 62 97
e 64 97
e 68 97
e 69 97
e 70 97
e 72 97
e 73 97
e 80 97
e 84 97
e 96 97
e 11 98
e 21 98
e 22 98
e 29 98
e 37 98
e 53 98
e 76 98
e 88 98
e 91 98
e 95 98
e 6 99
e 15 99
e 17 99
e 21 99
e 30 99
e 31 99
e 48 99
e 50 99
e 64 99
e 65 99
e 72 99
e 83 99
e 85 99
e 90 99
e 97 99
e 10 100
e 14 100
e 18 100
e 21 100
e 22 100
e 33 100
e 46 100
e 49 100
e 50 100
e 58 100
e 66 100
e 81 100
e 88 100
e 89 100
e 94 100
e 95 100
